language Essence 1.3

letting bot_end be [343, 60545, 63667, 60537, 0, 51897, 60917, 56715, 64654, 370, 58457, 1026, 2087; int(1..13)]
letting bot_start be [51567, 2093, 7250, 1063, 54985, 7, 1728, 692, 3, 60548, 4500, 54680, 58119; int(1..13)]
letting buffer_col be 2
letting buffer_row be 2
letting corridor_size be 7
letting n_shelves_col be 38
letting n_shelves_row be 23
letting shelf_col_size be 2
letting shelf_row_size be 1
